100 1305457288
71 52 45 20 43 65 57 82 70 2 95 37 85 11 18 10 72 86 3 61 60 100 59 58 55 13 33 31 89 50 80 12 1 19 90 76 32 38 4 15 97 49 30 27 64 22 17 62 84 9 75 81 21 34 51 39 78 41 5 6 96 53 40 47 23 48 73 67 29 93 83 26 63 42 88 54 28 14 92 77 87 99 8 69 79 94 35 16 74 7 91 66 98 25 44 24 46 56 36 68 
